# Solution for model r5_t36_m3_5 Batch Number: 4
# Finished Task: 36 / 36
# Makespan: 811.0, Total Distance: 613.0, Total Time: 13.9961
# R O S F Batch
0 0 28 0.0 0.0 -1
1 1 9 0.0 0.0 -1
2 2 10 0.0 0.0 -1
3 3 17 0.0 0.0 -1
4 4 8 0.0 0.0 -1
5 1 15 414.0 440.0 0
6 1 30 587.0 617.0 2
7 4 11 350.0 384.0 0
8 4 24 255.0 278.0 0
9 1 5 348.0 379.0 0
10 2 12 311.0 345.0 0
11 4 14 392.0 414.0 0
12 2 23 345.0 379.0 0
13 4 34 471.0 504.0 0
14 4 13 425.0 463.0 0
15 1 21 479.0 512.0 1
16 0 20 511.0 531.0 0
17 3 26 368.0 401.0 0
18 2 37 491.0 514.0 0
19 4 -1 610.0 645.0 2
20 0 32 541.0 561.0 2
21 1 6 512.0 540.0 2
22 0 16 481.0 501.0 0
23 2 18 393.0 432.0 0
24 4 7 303.0 336.0 0
25 0 38 732.0 771.0 3
26 3 36 431.0 467.0 0
27 3 -1 767.0 792.0 3
28 0 22 434.0 454.0 0
29 0 35 669.0 696.0 3
30 1 31 617.0 645.0 2
31 1 -1 674.0 707.0 3
32 0 40 580.0 607.0 3
33 3 27 643.0 682.0 3
34 4 19 543.0 566.0 2
35 0 25 696.0 732.0 3
36 3 33 511.0 547.0 0
37 2 39 561.0 587.0 2
38 0 -1 782.0 811.0 3
39 2 -1 613.0 643.0 2
40 0 29 628.0 660.0 3
